50 84 51 52 53 55 56 83 82 57 58 59 81 80 79 61 60 63 62 78 77 76 64 75 74 73 72 65 66 67 68 69 70 71 123 119 118 120 121 122 117 106 105 104 103 547 546 545 544 543 541 542 107 109 108 173 174 175 172 170 171 169 180 181 179 182 183 185 184 194 195 196 197 198 199 200 201 166 167 163 168 162 160 161 113 112 114 111 110 115 116 128 127 126 125 124 129 130 131 132 133 134 135 136 137 138 139 140 141 151 150 149 152 148 147 142 143 144 146 145 158 157 153 156 159 155 154 164 165 203 204 202 208 207 206 205 209 210 211 212 213 214 215 216 217 223 224 222 221 220 218 219 193 192 191 190 226 225 231 230 229 228 189 227 186 188 187 178 177 176 540 538 539 537 536 484 485 483 482 481 480 479 478 477 476 475 567 566 565 564 563 562 561 560 549 548 551 550 559 558 34 29 28 27 26 25 24 21 14 15 16 17 18 19 20 568 569 570 474 473 472 471 495 494 524 525 526 523 521 522 514 515 516 517 520 518 519 497 496 470 469 468 467 466 465 464 463 462 461 452 453 499 500 501 498 502 503 451 450 441 440 439 443 444 445 442 449 448 446 447 381 380 379 378 377 376 375 374 315 314 316 313 312 311 310 309 308 505 504 506 507 508 509 510 511 513 512 527 528 529 490 491 492 493 486 487 535 534 488 489 533 532 531 530 233 232 234 235 236 237 240 239 238 246 247 245 244 243 242 241 301 302 303 307 304 306 305 318 317 319 320 321 297 298 299 300 257 256 248 249 250 251 252 254 253 255 261 260 259 258 262 263 264 265 266 267 271 272 269 268 270 296 295 294 293 291 292 273 274 275 276 277 290 289 288 278 279 282 281 280 287 286 285 284 283 334 335 336 337 338 339 333 332 331 330 340 341 343 342 366 367 365 368 369 370 327 328 329 326 325 324 323 322 373 372 371 396 395 394 393 391 392 390 389 388 386 387 397 398 399 364 344 345 346 362 363 361 360 359 358 348 347 349 350 351 352 353 354 355 357 356 402 401 403 400 404 405 406 407 408 409 385 383 384 410 411 412 418 419 417 413 414 415 416 420 421 422 423 424 425 382 426 427 428 429 431 430 432 433 434 435 436 437 438 454 455 456 457 458 459 460 571 572 573 0 1 2 3 4 5 6 7 8 9 10 11 13 12 23 22 31 30 32 33 35 36 37 38 40 41 39 42 43 44 47 48 46 45 555 556 557 554 553 552 99 100 101 102 98 96 95 97 94 89 88 87 86 85 90 93 92 91 49 54